Route #1: 26 12 72 58 38 65 10 31 39 9 40
Route #2: 3 44 32 50 25 55 18 24 49 56 23 63 16
Route #3: 33 73 1 43 41 42 64 22 28 62 2
Route #4: 30 48 5 47 36 37 20 70 60 71 69 61 21 74
Route #5: 15 57 13 54 19 14 59 66 11 53
Route #6: 67 7 35 8 46 34 52 27 29 45 4
Route #7: 75 68 6 51 17
Cost 715